Maximize

30 dSta_0 + 16 d0_4 + 0 d0_4 + 0 d0_4.0 + 16 d0_4.0 + 10 d0_4 + 0 d0_4.0 + 12 d0_4.0 + 16 d1_33 + 0 d1_33 + 6 d1_33.0 + 0 d1_33.0 + 0 d1_33 + 6 d1_33.0 + 12 d1_33.0 + 16 d2_62 + 0 d2_62 + 6 d2_62.0 + 0 d2_62.0 + 0 d2_62 + 6 d2_62.0 + 12 d2_62.0 + 2 d4_5 + 0 d4_5 + 6 d4_5.0 + 0 d4_5.0 + 0 d4_5 + 8 d4_5.0 + 16 d4_5.0 + 49 d4_6 + 0 d4_6 + 6 d4_6.0 + 0 d4_6.0 + 0 d4_6 + 8 d4_6.0 + 16 d4_6.0 + 10 d5_15 + 0 d5_15 + 0 d5_15.0 + 0 d5_15.0 + 0 d5_15 + 2 d5_15.0 + 4 d5_15.0 + 6 d6_16 + 0 d6_16 + 6 d6_16.0 + 0 d6_16.0 + 0 d6_16 + 6 d6_16.0 + 12 d6_16.0 + 30 d7_20 + 0 d7_20 + 0 d7_20.0 + 0 d7_20.0 + 0 d7_20 + 2 d7_20.0 + 4 d7_20.0 + 47 d8_9 + 0 d8_9 + 0 d8_9.0 + 0 d8_9.0 + 0 d8_9 + 4 d8_9.0 + 8 d8_9.0 + 3 d8_10 + 0 d8_10 + 0 d8_10.0 + 0 d8_10.0 + 0 d8_10 + 4 d8_10.0 + 8 d8_10.0 + 2 d9_14 + 0 d9_14 + 6 d9_14.0 + 0 d9_14.0 + 0 d9_14 + 10 d9_14.0 + 20 d9_14.0 + 42 d10_11 + 0 d10_11 + 0 d10_11.0 + 0 d10_11.0 + 0 d10_11 + 2 d10_11.0 + 4 d10_11.0 + 25 d10_12 + 0 d10_12 + 0 d10_12.0 + 0 d10_12.0 + 0 d10_12 + 2 d10_12.0 + 4 d10_12.0 + 2 d11_13 + 0 d11_13 + 6 d11_13.0 + 0 d11_13.0 + 0 d11_13 + 8 d11_13.0 + 16 d11_13.0 + 3 d12_13 + 0 d12_13 + 6 d12_13.0 + 0 d12_13.0 + 0 d12_13 + 6 d12_13.0 + 12 d12_13.0 + 3 d13_14 + 0 d13_14 + 2 d13_14.0 + 0 d13_14.0 + 0 d13_14 + 2 d13_14.0 + 4 d13_14.0 + 11 d14_15 + 0 d14_15 + 2 d14_15.0 + 0 d14_15.0 + 0 d14_15 + 2 d14_15.0 + 4 d14_15.0 + 15 d15_1 + 0 d15_1 + 4 d15_1.0 + 0 d15_1.0 + 0 d15_1 + 4 d15_1.0 + 8 d15_1.0 + 3 d16_17 + 0 d16_17 + 0 d16_17.0 + 0 d16_17.0 + 0 d16_17 + 4 d16_17.0 + 8 d16_17.0 + 2 d16_18 + 0 d16_18 + 0 d16_18.0 + 0 d16_18.0 + 0 d16_18 + 4 d16_18.0 + 8 d16_18.0 + 1 d17_19 + 0 d17_19 + 0 d17_19.0 + 0 d17_19.0 + 0 d17_19 + 2 d17_19.0 + 4 d17_19.0 + 2 d18_19 + 0 d18_19 + 0 d18_19.0 + 0 d18_19.0 + 0 d18_19 + 2 d18_19.0 + 4 d18_19.0 + 3 d19_7 + 0 d19_7 + 0 d19_7.0 + 0 d19_7.0 + 0 d19_7 + 2 d19_7.0 + 4 d19_7.0 + 3 d20_21 + 0 d20_21 + 6 d20_21.0 + 0 d20_21.0 + 0 d20_21 + 10 d20_21.0 + 20 d20_21.0 + 1 d20_22 + 0 d20_22 + 6 d20_22.0 + 0 d20_22.0 + 0 d20_22 + 10 d20_22.0 + 20 d20_22.0 + 15 d21_28 + 0 d21_28 + 0 d21_28.0 + 0 d21_28.0 + 0 d21_28 + 2 d21_28.0 + 4 d21_28.0 + 1 d22_23 + 0 d22_23 + 0 d22_23.0 + 0 d22_23.0 + 0 d22_23 + 2 d22_23.0 + 4 d22_23.0 + 45 d23_24 + 0 d23_24 + 0 d23_24.0 + 0 d23_24.0 + 0 d23_24 + 2 d23_24.0 + 4 d23_24.0 + 3 d23_27 + 0 d23_27 + 0 d23_27.0 + 0 d23_27.0 + 0 d23_27 + 2 d23_27.0 + 4 d23_27.0 + 6 d24_29 + 0 d24_29 + 0 d24_29.0 + 0 d24_29.0 + 0 d24_29 + 6 d24_29.0 + 12 d24_29.0 + 1 d25_26 + 0 d25_26 + 0 d25_26.0 + 0 d25_26.0 + 0 d25_26 + 2 d25_26.0 + 4 d25_26.0 + 3 d25_27 + 0 d25_27 + 0 d25_27.0 + 0 d25_27.0 + 0 d25_27 + 2 d25_27.0 + 4 d25_27.0 + 3 d26_27 + 0 d26_27 + 0 d26_27.0 + 0 d26_27.0 + 0 d26_27 + 2 d26_27.0 + 4 d26_27.0 + 15 d27_28 + 0 d27_28 + 0 d27_28.0 + 0 d27_28.0 + 0 d27_28 + 2 d27_28.0 + 4 d27_28.0 + 1 d27_23 + 0 d27_23 + 0 d27_23.0 + 0 d27_23.0 + 0 d27_23 + 2 d27_23.0 + 4 d27_23.0 + 6 d28_8 + 0 d28_8 + 4 d28_8.0 + 0 d28_8.0 + 0 d28_8 + 6 d28_8.0 + 12 d28_8.0 + 3 d29_30 + 0 d29_30 + 0 d29_30.0 + 0 d29_30.0 + 0 d29_30 + 4 d29_30.0 + 8 d29_30.0 + 2 d29_31 + 0 d29_31 + 0 d29_31.0 + 0 d29_31.0 + 0 d29_31 + 4 d29_31.0 + 8 d29_31.0 + 1 d30_32 + 0 d30_32 + 0 d30_32.0 + 0 d30_32.0 + 0 d30_32 + 2 d30_32.0 + 4 d30_32.0 + 2 d31_32 + 0 d31_32 + 0 d31_32.0 + 0 d31_32.0 + 0 d31_32 + 2 d31_32.0 + 4 d31_32.0 + 3 d32_25 + 0 d32_25 + 0 d32_25.0 + 0 d32_25.0 + 0 d32_25 + 2 d32_25.0 + 4 d32_25.0 + 2 d33_34 + 0 d33_34 + 6 d33_34.0 + 0 d33_34.0 + 0 d33_34 + 8 d33_34.0 + 16 d33_34.0 + 49 d33_35 + 0 d33_35 + 6 d33_35.0 + 0 d33_35.0 + 0 d33_35 + 8 d33_35.0 + 16 d33_35.0 + 10 d34_44 + 0 d34_44 + 0 d34_44.0 + 0 d34_44.0 + 0 d34_44 + 2 d34_44.0 + 4 d34_44.0 + 6 d35_45 + 0 d35_45 + 6 d35_45.0 + 0 d35_45.0 + 0 d35_45 + 6 d35_45.0 + 12 d35_45.0 + 30 d36_49 + 0 d36_49 + 0 d36_49.0 + 0 d36_49.0 + 0 d36_49 + 2 d36_49.0 + 4 d36_49.0 + 47 d37_38 + 0 d37_38 + 0 d37_38.0 + 0 d37_38.0 + 0 d37_38 + 4 d37_38.0 + 8 d37_38.0 + 3 d37_39 + 0 d37_39 + 0 d37_39.0 + 0 d37_39.0 + 0 d37_39 + 4 d37_39.0 + 8 d37_39.0 + 2 d38_43 + 0 d38_43 + 6 d38_43.0 + 0 d38_43.0 + 0 d38_43 + 10 d38_43.0 + 20 d38_43.0 + 42 d39_40 + 0 d39_40 + 0 d39_40.0 + 0 d39_40.0 + 0 d39_40 + 2 d39_40.0 + 4 d39_40.0 + 25 d39_41 + 0 d39_41 + 0 d39_41.0 + 0 d39_41.0 + 0 d39_41 + 2 d39_41.0 + 4 d39_41.0 + 2 d40_42 + 0 d40_42 + 6 d40_42.0 + 0 d40_42.0 + 0 d40_42 + 8 d40_42.0 + 16 d40_42.0 + 3 d41_42 + 0 d41_42 + 6 d41_42.0 + 0 d41_42.0 + 0 d41_42 + 6 d41_42.0 + 12 d41_42.0 + 3 d42_43 + 0 d42_43 + 2 d42_43.0 + 0 d42_43.0 + 0 d42_43 + 2 d42_43.0 + 4 d42_43.0 + 11 d43_44 + 0 d43_44 + 2 d43_44.0 + 0 d43_44.0 + 0 d43_44 + 2 d43_44.0 + 4 d43_44.0 + 11 d44_2 + 0 d44_2 + 4 d44_2.0 + 0 d44_2.0 + 0 d44_2 + 4 d44_2.0 + 8 d44_2.0 + 3 d45_46 + 0 d45_46 + 0 d45_46.0 + 0 d45_46.0 + 0 d45_46 + 4 d45_46.0 + 8 d45_46.0 + 2 d45_47 + 0 d45_47 + 0 d45_47.0 + 0 d45_47.0 + 0 d45_47 + 4 d45_47.0 + 8 d45_47.0 + 1 d46_48 + 0 d46_48 + 0 d46_48.0 + 0 d46_48.0 + 0 d46_48 + 2 d46_48.0 + 4 d46_48.0 + 2 d47_48 + 0 d47_48 + 0 d47_48.0 + 0 d47_48.0 + 0 d47_48 + 2 d47_48.0 + 4 d47_48.0 + 3 d48_36 + 0 d48_36 + 0 d48_36.0 + 0 d48_36.0 + 0 d48_36 + 2 d48_36.0 + 4 d48_36.0 + 3 d49_50 + 0 d49_50 + 6 d49_50.0 + 0 d49_50.0 + 0 d49_50 + 10 d49_50.0 + 20 d49_50.0 + 1 d49_51 + 0 d49_51 + 6 d49_51.0 + 0 d49_51.0 + 0 d49_51 + 10 d49_51.0 + 20 d49_51.0 + 15 d50_57 + 0 d50_57 + 0 d50_57.0 + 0 d50_57.0 + 0 d50_57 + 2 d50_57.0 + 4 d50_57.0 + 1 d51_52 + 0 d51_52 + 0 d51_52.0 + 0 d51_52.0 + 0 d51_52 + 2 d51_52.0 + 4 d51_52.0 + 45 d52_53 + 0 d52_53 + 0 d52_53.0 + 0 d52_53.0 + 0 d52_53 + 2 d52_53.0 + 4 d52_53.0 + 3 d52_56 + 0 d52_56 + 0 d52_56.0 + 0 d52_56.0 + 0 d52_56 + 2 d52_56.0 + 4 d52_56.0 + 6 d53_58 + 0 d53_58 + 0 d53_58.0 + 0 d53_58.0 + 0 d53_58 + 6 d53_58.0 + 12 d53_58.0 + 1 d54_55 + 0 d54_55 + 0 d54_55.0 + 0 d54_55.0 + 0 d54_55 + 2 d54_55.0 + 4 d54_55.0 + 3 d54_56 + 0 d54_56 + 0 d54_56.0 + 0 d54_56.0 + 0 d54_56 + 2 d54_56.0 + 4 d54_56.0 + 3 d55_56 + 0 d55_56 + 0 d55_56.0 + 0 d55_56.0 + 0 d55_56 + 2 d55_56.0 + 4 d55_56.0 + 15 d56_57 + 0 d56_57 + 0 d56_57.0 + 0 d56_57.0 + 0 d56_57 + 2 d56_57.0 + 4 d56_57.0 + 1 d56_52 + 0 d56_52 + 0 d56_52.0 + 0 d56_52.0 + 0 d56_52 + 2 d56_52.0 + 4 d56_52.0 + 6 d57_37 + 0 d57_37 + 4 d57_37.0 + 0 d57_37.0 + 0 d57_37 + 6 d57_37.0 + 12 d57_37.0 + 3 d58_59 + 0 d58_59 + 0 d58_59.0 + 0 d58_59.0 + 0 d58_59 + 4 d58_59.0 + 8 d58_59.0 + 2 d58_60 + 0 d58_60 + 0 d58_60.0 + 0 d58_60.0 + 0 d58_60 + 4 d58_60.0 + 8 d58_60.0 + 1 d59_61 + 0 d59_61 + 0 d59_61.0 + 0 d59_61.0 + 0 d59_61 + 2 d59_61.0 + 4 d59_61.0 + 2 d60_61 + 0 d60_61 + 0 d60_61.0 + 0 d60_61.0 + 0 d60_61 + 2 d60_61.0 + 4 d60_61.0 + 3 d61_54 + 0 d61_54 + 0 d61_54.0 + 0 d61_54.0 + 0 d61_54 + 2 d61_54.0 + 4 d61_54.0 + 2 d62_63 + 0 d62_63 + 6 d62_63.0 + 0 d62_63.0 + 0 d62_63 + 8 d62_63.0 + 16 d62_63.0 + 49 d62_64 + 0 d62_64 + 6 d62_64.0 + 0 d62_64.0 + 0 d62_64 + 8 d62_64.0 + 16 d62_64.0 + 10 d63_73 + 0 d63_73 + 0 d63_73.0 + 0 d63_73.0 + 0 d63_73 + 2 d63_73.0 + 4 d63_73.0 + 6 d64_74 + 0 d64_74 + 6 d64_74.0 + 0 d64_74.0 + 0 d64_74 + 6 d64_74.0 + 12 d64_74.0 + 30 d65_78 + 0 d65_78 + 0 d65_78.0 + 0 d65_78.0 + 0 d65_78 + 2 d65_78.0 + 4 d65_78.0 + 47 d66_67 + 0 d66_67 + 0 d66_67.0 + 0 d66_67.0 + 0 d66_67 + 4 d66_67.0 + 8 d66_67.0 + 3 d66_68 + 0 d66_68 + 0 d66_68.0 + 0 d66_68.0 + 0 d66_68 + 4 d66_68.0 + 8 d66_68.0 + 2 d67_72 + 0 d67_72 + 6 d67_72.0 + 0 d67_72.0 + 0 d67_72 + 10 d67_72.0 + 20 d67_72.0 + 42 d68_69 + 0 d68_69 + 0 d68_69.0 + 0 d68_69.0 + 0 d68_69 + 2 d68_69.0 + 4 d68_69.0 + 25 d68_70 + 0 d68_70 + 0 d68_70.0 + 0 d68_70.0 + 0 d68_70 + 2 d68_70.0 + 4 d68_70.0 + 2 d69_71 + 0 d69_71 + 6 d69_71.0 + 0 d69_71.0 + 0 d69_71 + 8 d69_71.0 + 16 d69_71.0 + 3 d70_71 + 0 d70_71 + 6 d70_71.0 + 0 d70_71.0 + 0 d70_71 + 6 d70_71.0 + 12 d70_71.0 + 3 d71_72 + 0 d71_72 + 2 d71_72.0 + 0 d71_72.0 + 0 d71_72 + 2 d71_72.0 + 4 d71_72.0 + 11 d72_73 + 0 d72_73 + 2 d72_73.0 + 0 d72_73.0 + 0 d72_73 + 2 d72_73.0 + 4 d72_73.0 + 10 d73_3 + 0 d73_3 + 4 d73_3.0 + 0 d73_3.0 + 0 d73_3 + 4 d73_3.0 + 8 d73_3.0 + 3 d74_75 + 0 d74_75 + 0 d74_75.0 + 0 d74_75.0 + 0 d74_75 + 4 d74_75.0 + 8 d74_75.0 + 2 d74_76 + 0 d74_76 + 0 d74_76.0 + 0 d74_76.0 + 0 d74_76 + 4 d74_76.0 + 8 d74_76.0 + 1 d75_77 + 0 d75_77 + 0 d75_77.0 + 0 d75_77.0 + 0 d75_77 + 2 d75_77.0 + 4 d75_77.0 + 2 d76_77 + 0 d76_77 + 0 d76_77.0 + 0 d76_77.0 + 0 d76_77 + 2 d76_77.0 + 4 d76_77.0 + 3 d77_65 + 0 d77_65 + 0 d77_65.0 + 0 d77_65.0 + 0 d77_65 + 2 d77_65.0 + 4 d77_65.0 + 3 d78_79 + 0 d78_79 + 6 d78_79.0 + 0 d78_79.0 + 0 d78_79 + 10 d78_79.0 + 20 d78_79.0 + 1 d78_80 + 0 d78_80 + 6 d78_80.0 + 0 d78_80.0 + 0 d78_80 + 10 d78_80.0 + 20 d78_80.0 + 15 d79_86 + 0 d79_86 + 0 d79_86.0 + 0 d79_86.0 + 0 d79_86 + 2 d79_86.0 + 4 d79_86.0 + 1 d80_81 + 0 d80_81 + 0 d80_81.0 + 0 d80_81.0 + 0 d80_81 + 2 d80_81.0 + 4 d80_81.0 + 45 d81_82 + 0 d81_82 + 0 d81_82.0 + 0 d81_82.0 + 0 d81_82 + 2 d81_82.0 + 4 d81_82.0 + 3 d81_85 + 0 d81_85 + 0 d81_85.0 + 0 d81_85.0 + 0 d81_85 + 2 d81_85.0 + 4 d81_85.0 + 6 d82_87 + 0 d82_87 + 0 d82_87.0 + 0 d82_87.0 + 0 d82_87 + 6 d82_87.0 + 12 d82_87.0 + 1 d83_84 + 0 d83_84 + 0 d83_84.0 + 0 d83_84.0 + 0 d83_84 + 2 d83_84.0 + 4 d83_84.0 + 3 d83_85 + 0 d83_85 + 0 d83_85.0 + 0 d83_85.0 + 0 d83_85 + 2 d83_85.0 + 4 d83_85.0 + 3 d84_85 + 0 d84_85 + 0 d84_85.0 + 0 d84_85.0 + 0 d84_85 + 2 d84_85.0 + 4 d84_85.0 + 15 d85_86 + 0 d85_86 + 0 d85_86.0 + 0 d85_86.0 + 0 d85_86 + 2 d85_86.0 + 4 d85_86.0 + 1 d85_81 + 0 d85_81 + 0 d85_81.0 + 0 d85_81.0 + 0 d85_81 + 2 d85_81.0 + 4 d85_81.0 + 6 d86_66 + 0 d86_66 + 4 d86_66.0 + 0 d86_66.0 + 0 d86_66 + 6 d86_66.0 + 12 d86_66.0 + 3 d87_88 + 0 d87_88 + 0 d87_88.0 + 0 d87_88.0 + 0 d87_88 + 4 d87_88.0 + 8 d87_88.0 + 2 d87_89 + 0 d87_89 + 0 d87_89.0 + 0 d87_89.0 + 0 d87_89 + 4 d87_89.0 + 8 d87_89.0 + 1 d88_90 + 0 d88_90 + 0 d88_90.0 + 0 d88_90.0 + 0 d88_90 + 2 d88_90.0 + 4 d88_90.0 + 2 d89_90 + 0 d89_90 + 0 d89_90.0 + 0 d89_90.0 + 0 d89_90 + 2 d89_90.0 + 4 d89_90.0 + 3 d90_83 + 0 d90_83 + 0 d90_83.0 + 0 d90_83.0 + 0 d90_83 + 2 d90_83.0 + 4 d90_83.0


Subject to


\ === tcfg constraints ===
dSta_0 = 1
b0 - d0_4 = 0
b0 - dSta_0 = 0
b1 - d1_33 = 0
b1 - d15_1 = 0
b2 - d2_62 = 0
b2 - d44_2 = 0
b3 - d73_3 = 0
b4 - d4_5 - d4_6 = 0
b4 - d0_4 = 0
b5 - d5_15 = 0
b5 - d4_5 = 0
b6 - d6_16 = 0
b6 - d4_6 = 0
b7 - d7_20 = 0
b7 - d19_7 = 0
b8 - d8_9 - d8_10 = 0
b8 - d28_8 = 0
b9 - d9_14 = 0
b9 - d8_9 = 0
b10 - d10_11 - d10_12 = 0
b10 - d8_10 = 0
b11 - d11_13 = 0
b11 - d10_11 = 0
b12 - d12_13 = 0
b12 - d10_12 = 0
b13 - d13_14 = 0
b13 - d11_13 - d12_13 = 0
b14 - d14_15 = 0
b14 - d9_14 - d13_14 = 0
b15 - d15_1 = 0
b15 - d5_15 - d14_15 = 0
b16 - d16_17 - d16_18 = 0
b16 - d6_16 = 0
b17 - d17_19 = 0
b17 - d16_17 = 0
b18 - d18_19 = 0
b18 - d16_18 = 0
b19 - d19_7 = 0
b19 - d17_19 - d18_19 = 0
b20 - d20_21 - d20_22 = 0
b20 - d7_20 = 0
b21 - d21_28 = 0
b21 - d20_21 = 0
b22 - d22_23 = 0
b22 - d20_22 = 0
b23 - d23_24 - d23_27 = 0
b23 - d22_23 - d27_23 = 0
b24 - d24_29 = 0
b24 - d23_24 = 0
b25 - d25_26 - d25_27 = 0
b25 - d32_25 = 0
b26 - d26_27 = 0
b26 - d25_26 = 0
b27 - d27_28 - d27_23 = 0
b27 - d23_27 - d25_27 - d26_27 = 0
b28 - d28_8 = 0
b28 - d21_28 - d27_28 = 0
b29 - d29_30 - d29_31 = 0
b29 - d24_29 = 0
b30 - d30_32 = 0
b30 - d29_30 = 0
b31 - d31_32 = 0
b31 - d29_31 = 0
b32 - d32_25 = 0
b32 - d30_32 - d31_32 = 0
b33 - d33_34 - d33_35 = 0
b33 - d1_33 = 0
b34 - d34_44 = 0
b34 - d33_34 = 0
b35 - d35_45 = 0
b35 - d33_35 = 0
b36 - d36_49 = 0
b36 - d48_36 = 0
b37 - d37_38 - d37_39 = 0
b37 - d57_37 = 0
b38 - d38_43 = 0
b38 - d37_38 = 0
b39 - d39_40 - d39_41 = 0
b39 - d37_39 = 0
b40 - d40_42 = 0
b40 - d39_40 = 0
b41 - d41_42 = 0
b41 - d39_41 = 0
b42 - d42_43 = 0
b42 - d40_42 - d41_42 = 0
b43 - d43_44 = 0
b43 - d38_43 - d42_43 = 0
b44 - d44_2 = 0
b44 - d34_44 - d43_44 = 0
b45 - d45_46 - d45_47 = 0
b45 - d35_45 = 0
b46 - d46_48 = 0
b46 - d45_46 = 0
b47 - d47_48 = 0
b47 - d45_47 = 0
b48 - d48_36 = 0
b48 - d46_48 - d47_48 = 0
b49 - d49_50 - d49_51 = 0
b49 - d36_49 = 0
b50 - d50_57 = 0
b50 - d49_50 = 0
b51 - d51_52 = 0
b51 - d49_51 = 0
b52 - d52_53 - d52_56 = 0
b52 - d51_52 - d56_52 = 0
b53 - d53_58 = 0
b53 - d52_53 = 0
b54 - d54_55 - d54_56 = 0
b54 - d61_54 = 0
b55 - d55_56 = 0
b55 - d54_55 = 0
b56 - d56_57 - d56_52 = 0
b56 - d52_56 - d54_56 - d55_56 = 0
b57 - d57_37 = 0
b57 - d50_57 - d56_57 = 0
b58 - d58_59 - d58_60 = 0
b58 - d53_58 = 0
b59 - d59_61 = 0
b59 - d58_59 = 0
b60 - d60_61 = 0
b60 - d58_60 = 0
b61 - d61_54 = 0
b61 - d59_61 - d60_61 = 0
b62 - d62_63 - d62_64 = 0
b62 - d2_62 = 0
b63 - d63_73 = 0
b63 - d62_63 = 0
b64 - d64_74 = 0
b64 - d62_64 = 0
b65 - d65_78 = 0
b65 - d77_65 = 0
b66 - d66_67 - d66_68 = 0
b66 - d86_66 = 0
b67 - d67_72 = 0
b67 - d66_67 = 0
b68 - d68_69 - d68_70 = 0
b68 - d66_68 = 0
b69 - d69_71 = 0
b69 - d68_69 = 0
b70 - d70_71 = 0
b70 - d68_70 = 0
b71 - d71_72 = 0
b71 - d69_71 - d70_71 = 0
b72 - d72_73 = 0
b72 - d67_72 - d71_72 = 0
b73 - d73_3 = 0
b73 - d63_73 - d72_73 = 0
b74 - d74_75 - d74_76 = 0
b74 - d64_74 = 0
b75 - d75_77 = 0
b75 - d74_75 = 0
b76 - d76_77 = 0
b76 - d74_76 = 0
b77 - d77_65 = 0
b77 - d75_77 - d76_77 = 0
b78 - d78_79 - d78_80 = 0
b78 - d65_78 = 0
b79 - d79_86 = 0
b79 - d78_79 = 0
b80 - d80_81 = 0
b80 - d78_80 = 0
b81 - d81_82 - d81_85 = 0
b81 - d80_81 - d85_81 = 0
b82 - d82_87 = 0
b82 - d81_82 = 0
b83 - d83_84 - d83_85 = 0
b83 - d90_83 = 0
b84 - d84_85 = 0
b84 - d83_84 = 0
b85 - d85_86 - d85_81 = 0
b85 - d81_85 - d83_85 - d84_85 = 0
b86 - d86_66 = 0
b86 - d79_86 - d85_86 = 0
b87 - d87_88 - d87_89 = 0
b87 - d82_87 = 0
b88 - d88_90 = 0
b88 - d87_88 = 0
b89 - d89_90 = 0
b89 - d87_89 = 0
b90 - d90_83 = 0
b90 - d88_90 - d89_90 = 0


\ === tcfg_estunit_cons_ps ===
d0_4 - d0_4.0 >= 0
d0_4.0 <= 1
d1_33 - d1_33.0 >= 0
d1_33.0 <= 1
d2_62 - d2_62.0 >= 0
d2_62.0 <= 1
d4_5 - d4_5.0 >= 0
d4_5.0 <= 1
d4_6 - d4_6.0 >= 0
d4_6.0 <= 1
d5_15 - d5_15.0 >= 0
d5_15.0 <= 1
d6_16 - d6_16.0 >= 0
d6_16.0 <= 1
d7_20 - d7_20.0 >= 0
d7_20.0 <= 1
d8_9 - d8_9.0 >= 0
d8_9.0 <= 1
d8_10 - d8_10.0 >= 0
d8_10.0 <= 1
d9_14 - d9_14.0 >= 0
d9_14.0 <= 1
d10_11 - d10_11.0 >= 0
d10_11.0 <= 1
d10_12 - d10_12.0 >= 0
d10_12.0 <= 1
d11_13 - d11_13.0 >= 0
d11_13.0 <= 1
d12_13 - d12_13.0 >= 0
d12_13.0 <= 1
d13_14 - d13_14.0 >= 0
d13_14.0 <= 1
d14_15 - d14_15.0 >= 0
d14_15.0 <= 1
d15_1 - d15_1.0 >= 0
d15_1.0 <= 1
d16_17 - d16_17.0 >= 0
d16_17.0 <= 1
d16_18 - d16_18.0 >= 0
d16_18.0 <= 1
d17_19 - d17_19.0 >= 0
d17_19.0 <= 1
d18_19 - d18_19.0 >= 0
d18_19.0 <= 1
d19_7 - d19_7.0 >= 0
d19_7.0 <= 1
d20_21 - d20_21.0 >= 0
d20_21.0 <= 1
d20_22 - d20_22.0 >= 0
d20_22.0 <= 1
d21_28 - d21_28.0 >= 0
d21_28.0 <= 1
d22_23 - d22_23.0 >= 0
d22_23.0 <= 1
d23_24 - d23_24.0 >= 0
d23_24.0 <= 1
d23_27 - d23_27.0 >= 0
d23_27.0 <= 1
d24_29 - d24_29.0 >= 0
d24_29.0 <= 1
d25_26 - d25_26.0 >= 0
d25_26.0 <= 1
d25_27 - d25_27.0 >= 0
d25_27.0 <= 1
d26_27 - d26_27.0 >= 0
d26_27.0 <= 1
d27_28 - d27_28.0 >= 0
d27_28.0 <= 1
d27_23 - d27_23.0 >= 0
d27_23.0 <= 1
d28_8 - d28_8.0 >= 0
d28_8.0 <= 1
d29_30 - d29_30.0 >= 0
d29_30.0 <= 1
d29_31 - d29_31.0 >= 0
d29_31.0 <= 1
d30_32 - d30_32.0 >= 0
d30_32.0 <= 1
d31_32 - d31_32.0 >= 0
d31_32.0 <= 1
d32_25 - d32_25.0 >= 0
d32_25.0 <= 1
d33_34 - d33_34.0 >= 0
d33_34.0 <= 1
d33_35 - d33_35.0 >= 0
d33_35.0 <= 1
d34_44 - d34_44.0 >= 0
d34_44.0 <= 1
d35_45 - d35_45.0 >= 0
d35_45.0 <= 1
d36_49 - d36_49.0 >= 0
d36_49.0 <= 1
d37_38 - d37_38.0 >= 0
d37_38.0 <= 1
d37_39 - d37_39.0 >= 0
d37_39.0 <= 1
d38_43 - d38_43.0 >= 0
d38_43.0 <= 1
d39_40 - d39_40.0 >= 0
d39_40.0 <= 1
d39_41 - d39_41.0 >= 0
d39_41.0 <= 1
d40_42 - d40_42.0 >= 0
d40_42.0 <= 1
d41_42 - d41_42.0 >= 0
d41_42.0 <= 1
d42_43 - d42_43.0 >= 0
d42_43.0 <= 1
d43_44 - d43_44.0 >= 0
d43_44.0 <= 1
d44_2 - d44_2.0 >= 0
d44_2.0 <= 1
d45_46 - d45_46.0 >= 0
d45_46.0 <= 1
d45_47 - d45_47.0 >= 0
d45_47.0 <= 1
d46_48 - d46_48.0 >= 0
d46_48.0 <= 1
d47_48 - d47_48.0 >= 0
d47_48.0 <= 1
d48_36 - d48_36.0 >= 0
d48_36.0 <= 1
d49_50 - d49_50.0 >= 0
d49_50.0 <= 1
d49_51 - d49_51.0 >= 0
d49_51.0 <= 1
d50_57 - d50_57.0 >= 0
d50_57.0 <= 1
d51_52 - d51_52.0 >= 0
d51_52.0 <= 1
d52_53 - d52_53.0 >= 0
d52_53.0 <= 1
d52_56 - d52_56.0 >= 0
d52_56.0 <= 1
d53_58 - d53_58.0 >= 0
d53_58.0 <= 1
d54_55 - d54_55.0 >= 0
d54_55.0 <= 1
d54_56 - d54_56.0 >= 0
d54_56.0 <= 1
d55_56 - d55_56.0 >= 0
d55_56.0 <= 1
d56_57 - d56_57.0 >= 0
d56_57.0 <= 1
d56_52 - d56_52.0 >= 0
d56_52.0 <= 1
d57_37 - d57_37.0 >= 0
d57_37.0 <= 1
d58_59 - d58_59.0 >= 0
d58_59.0 <= 1
d58_60 - d58_60.0 >= 0
d58_60.0 <= 1
d59_61 - d59_61.0 >= 0
d59_61.0 <= 1
d60_61 - d60_61.0 >= 0
d60_61.0 <= 1
d61_54 - d61_54.0 >= 0
d61_54.0 <= 1
d62_63 - d62_63.0 >= 0
d62_63.0 <= 1
d62_64 - d62_64.0 >= 0
d62_64.0 <= 1
d63_73 - d63_73.0 >= 0
d63_73.0 <= 1
d64_74 - d64_74.0 >= 0
d64_74.0 <= 1
d65_78 - d65_78.0 >= 0
d65_78.0 <= 1
d66_67 - d66_67.0 >= 0
d66_67.0 <= 1
d66_68 - d66_68.0 >= 0
d66_68.0 <= 1
d67_72 - d67_72.0 >= 0
d67_72.0 <= 1
d68_69 - d68_69.0 >= 0
d68_69.0 <= 1
d68_70 - d68_70.0 >= 0
d68_70.0 <= 1
d69_71 - d69_71.0 >= 0
d69_71.0 <= 1
d70_71 - d70_71.0 >= 0
d70_71.0 <= 1
d71_72 - d71_72.0 >= 0
d71_72.0 <= 1
d72_73 - d72_73.0 >= 0
d72_73.0 <= 1
d73_3 - d73_3.0 >= 0
d73_3.0 <= 1
d74_75 - d74_75.0 >= 0
d74_75.0 <= 1
d74_76 - d74_76.0 >= 0
d74_76.0 <= 1
d75_77 - d75_77.0 >= 0
d75_77.0 <= 1
d76_77 - d76_77.0 >= 0
d76_77.0 <= 1
d77_65 - d77_65.0 >= 0
d77_65.0 <= 1
d78_79 - d78_79.0 >= 0
d78_79.0 <= 1
d78_80 - d78_80.0 >= 0
d78_80.0 <= 1
d79_86 - d79_86.0 >= 0
d79_86.0 <= 1
d80_81 - d80_81.0 >= 0
d80_81.0 <= 1
d81_82 - d81_82.0 >= 0
d81_82.0 <= 1
d81_85 - d81_85.0 >= 0
d81_85.0 <= 1
d82_87 - d82_87.0 >= 0
d82_87.0 <= 1
d83_84 - d83_84.0 >= 0
d83_84.0 <= 1
d83_85 - d83_85.0 >= 0
d83_85.0 <= 1
d84_85 - d84_85.0 >= 0
d84_85.0 <= 1
d85_86 - d85_86.0 >= 0
d85_86.0 <= 1
d85_81 - d85_81.0 >= 0
d85_81.0 <= 1
d86_66 - d86_66.0 >= 0
d86_66.0 <= 1
d87_88 - d87_88.0 >= 0
d87_88.0 <= 1
d87_89 - d87_89.0 >= 0
d87_89.0 <= 1
d88_90 - d88_90.0 >= 0
d88_90.0 <= 1
d89_90 - d89_90.0 >= 0
d89_90.0 <= 1
d90_83 - d90_83.0 >= 0
d90_83.0 <= 1

\ === infeasible path constraints ===

b0 = 1
b1 = 1
b2 = 1
b3 = 1
b62+ b33+ b4 = 3
b73+ b44+ b15 = 3
b85+ b56+ b27- 19 b80- 19 b51- 19 b22 =  0
b82+ b53+ b24 = 15

Generals

Sta
b0
d0_4
b1
d1_33
b2
d2_62
b3
b4
d4_5
d4_6
b5
d5_15
b6
d6_16
b7
d7_20
b8
d8_9
d8_10
b9
d9_14
b10
d10_11
d10_12
b11
d11_13
b12
d12_13
b13
d13_14
b14
d14_15
b15
d15_1
b16
d16_17
d16_18
b17
d17_19
b18
d18_19
b19
d19_7
b20
d20_21
d20_22
b21
d21_28
b22
d22_23
b23
d23_24
d23_27
b24
d24_29
b25
d25_26
d25_27
b26
d26_27
b27
d27_28
d27_23
b28
d28_8
b29
d29_30
d29_31
b30
d30_32
b31
d31_32
b32
d32_25
b33
d33_34
d33_35
b34
d34_44
b35
d35_45
b36
d36_49
b37
d37_38
d37_39
b38
d38_43
b39
d39_40
d39_41
b40
d40_42
b41
d41_42
b42
d42_43
b43
d43_44
b44
d44_2
b45
d45_46
d45_47
b46
d46_48
b47
d47_48
b48
d48_36
b49
d49_50
d49_51
b50
d50_57
b51
d51_52
b52
d52_53
d52_56
b53
d53_58
b54
d54_55
d54_56
b55
d55_56
b56
d56_57
d56_52
b57
d57_37
b58
d58_59
d58_60
b59
d59_61
b60
d60_61
b61
d61_54
b62
d62_63
d62_64
b63
d63_73
b64
d64_74
b65
d65_78
b66
d66_67
d66_68
b67
d67_72
b68
d68_69
d68_70
b69
d69_71
b70
d70_71
b71
d71_72
b72
d72_73
b73
d73_3
b74
d74_75
d74_76
b75
d75_77
b76
d76_77
b77
d77_65
b78
d78_79
d78_80
b79
d79_86
b80
d80_81
b81
d81_82
d81_85
b82
d82_87
b83
d83_84
d83_85
b84
d84_85
b85
d85_86
d85_81
b86
d86_66
b87
d87_88
d87_89
b88
d88_90
b89
d89_90
b90
d90_83

End
\ total_cons: 424 	total_vars: 209
